\ LP format - for model browsing. Use MPS format to capture full model detail.
Minimize
  - 2 x0 + 2 x1
Subject To
 constr(0): - 5 x0 - 2 x1 >= -2
 constr(1): x0 + 4 x1 <= 6
Bounds
 x0 <= 2
 x1 <= 5
Generals
 x0 x1
End
